Route #1: 84 110 52 121 70 98 32 15
Route #2: 43 33 115 74 96 117 50 101 113 103 75
Route #3: 93 105 11 80 77 86 106 66 108
Route #4: 92 4
Route #5: 9 38 97 13 17 100
Route #6: 51 126 29 119 39 25
Route #7: 73 109 72 27 37 129
Route #8: 124 127 12 62 42 56 41 59 102 18 111
Route #9: 71 118 116 123 82
Route #10: 48 128 54 6 107 99 5
Route #11: 7 30 49 3 35 22 34 47
Route #12: 20 55 23 46 112 95 122 88 81 21
Route #13: 8 63 57 14 58 36 78 24 67
Route #14: 91 45 90 104 76
Route #15: 2 61 26 85 44 89 94
Route #16: 65 19 60 40 31 68 87
Route #17: 64 69 10 125 83
Route #18: 16 114 28 53 120 79
